40
374
5
36
60
79
3
13
0 3
0 9
0 11
0 12
0 13
0 15
0 16
0 18
0 19
0 20
0 22
0 24
0 25
0 26
0 28
0 30
0 32
0 34
0 35
0 36
0 39
1 5
1 10
1 13
1 16
1 20
1 21
1 22
1 25
1 27
1 29
1 31
1 32
1 38
1 39
2 3
2 4
2 5
2 9
2 10
2 12
2 14
2 16
2 17
2 18
2 20
2 23
2 24
2 27
2 30
2 31
2 32
2 36
3 4
3 8
3 10
3 11
3 13
3 14
3 17
3 20
3 21
3 24
3 28
3 29
3 33
3 35
3 36
4 6
4 7
4 8
4 10
4 11
4 12
4 14
4 16
4 17
4 19
4 20
4 22
4 23
4 24
4 25
4 26
4 28
4 33
4 35
4 38
5 7
5 8
5 15
5 16
5 18
5 23
5 28
5 30
5 32
5 36
5 39
6 7
6 8
6 10
6 11
6 13
6 17
6 19
6 21
6 23
6 24
6 26
6 27
6 33
6 34
6 36
6 38
7 10
7 11
7 13
7 15
7 16
7 17
7 20
7 24
7 26
7 28
7 29
7 33
7 38
8 9
8 10
8 16
8 17
8 18
8 20
8 21
8 22
8 23
8 24
8 25
8 27
8 28
8 29
8 30
8 32
8 34
8 39
9 10
9 12
9 14
9 15
9 16
9 17
9 19
9 23
9 29
9 30
9 31
9 33
9 39
10 11
10 14
10 18
10 19
10 20
10 25
10 27
10 28
10 30
10 33
10 34
10 36
10 38
11 15
11 16
11 17
11 18
11 19
11 20
11 22
11 27
11 31
11 32
11 33
11 34
11 36
11 37
11 38
11 39
12 13
12 14
12 18
12 19
12 20
12 22
12 28
12 31
12 33
12 35
13 14
13 15
13 16
13 17
13 19
13 23
13 26
13 27
13 28
13 30
13 35
13 37
14 19
14 20
14 22
14 24
14 25
14 26
14 28
14 31
14 34
14 37
15 17
15 18
15 22
15 23
15 25
15 27
15 29
15 30
15 36
15 38
16 18
16 21
16 26
16 28
16 29
16 30
16 32
16 33
16 36
16 39
17 18
17 19
17 20
17 23
17 25
17 26
17 27
17 28
17 30
17 31
17 33
17 34
17 37
17 39
18 21
18 23
18 25
18 26
18 27
18 29
18 30
18 32
18 33
18 34
18 35
18 36
18 37
18 38
18 39
19 20
19 26
19 27
19 29
19 30
19 31
19 34
19 35
19 38
20 21
20 22
20 23
20 25
20 26
20 29
20 30
20 31
20 33
20 36
20 37
20 38
20 39
21 28
21 29
21 30
21 33
21 34
21 36
21 37
21 38
21 39
22 23
22 25
22 30
22 34
23 24
23 28
23 29
23 30
23 33
23 35
23 36
23 37
23 39
24 28
24 29
24 30
24 31
24 33
24 36
24 37
24 38
25 26
25 28
25 29
25 30
25 33
25 35
25 39
26 27
26 29
26 31
26 32
26 34
26 35
26 36
26 37
27 28
27 29
27 30
27 31
27 32
27 35
27 38
28 29
28 34
28 35
29 30
29 31
29 35
29 37
29 38
29 39
30 33
30 38
31 32
31 33
31 35
31 37
31 38
32 34
32 37
32 38
33 34
33 35
33 36
33 37
34 38
34 39
35 36
36 37
36 38
36 39
37 38
38 39
26 17 19 6 4 30 33 2
23 35 5 11 28 25 14 24
22 20 13 32 12 10 37 15
34 1 38 21 0 18 27 7
29 9 31 36 3 16 8 39
